(set-logic QF_S)
(set-info :status sat)
(declare-const x String)
(declare-const y String)
(declare-const m String)
(declare-const n String)

(assert (= (str.++ x y) (str.++ m n) ) )

(check-sat)
(get-model)